1 28.3 49.14
2 35.05 48.3
3 37.45 47.59
4 28.4 50.16
5 35.15 47.58
6 24.45 48.56
7 30.3 50.27
8 32.15 48.3
9 39.15 48.35
10 25.15 50.45
11 24.02 49.51
12 32 46.58
13 30.45 46.28
14 34.84 49.36
15 26 50.35
16 34.06 44.58
17 34.45 50.53
18 25.3 49.34
19 22.15 48.38
20 36.13 50
21 32.3 46.38
22 27.0 49.24
23 32 49.27
24 25.57 48.17
25 31.18 51.29
